NAME /Users/henri/Research/solvers/instances/idol-instances/robust/collection/cbp_Subramanyam_et_al_2020/CapBud_N10_15/models/uncertain_technology_matrix/
ROWS
 N  OBJ
 L  capacity
 L  c_950
 L  c_951
 L  c_952
 L  c_953
 L  c_954
 L  c_955
 L  c_956
 L  c_957
 L  c_958
 L  c_959
COLUMNS
    MARKER    'MARKER'                 'INTORG'
    x_0        OBJ        -5.87781
    x_0        c_950      1
    x_0        capacity   1.17556
    x_1        OBJ        -7.33226
    x_1        c_951      1
    x_1        capacity   1.46645
    x_2        OBJ        -8.55647
    x_2        c_952      1
    x_2        capacity   1.71129
    x_3        OBJ        -5.41743
    x_3        c_953      1
    x_3        capacity   1.08349
    x_4        OBJ        -9.5942
    x_4        c_954      1
    x_4        capacity   1.91884
    x_5        OBJ        -2.81136
    x_5        c_955      1
    x_5        capacity   0.562271
    x_6        OBJ        -0.667568
    x_6        c_956      1
    x_6        capacity   0.133514
    x_7        OBJ        -3.84354
    x_7        c_957      1
    x_7        capacity   0.768707
    x_8        OBJ        -9.64093
    x_8        c_958      1
    x_8        capacity   1.92819
    x_9        OBJ        -7.63933
    x_9        c_959      1
    x_9        capacity   1.52787
    y_0        OBJ        -4.70225
    y_0        c_950      1
    y_0        capacity   1.17556
    y_1        OBJ        -5.86581
    y_1        c_951      1
    y_1        capacity   1.46645
    y_2        OBJ        -6.84517
    y_2        c_952      1
    y_2        capacity   1.71129
    y_3        OBJ        -4.33395
    y_3        c_953      1
    y_3        capacity   1.08349
    y_4        OBJ        -7.67536
    y_4        c_954      1
    y_4        capacity   1.91884
    y_5        OBJ        -2.24908
    y_5        c_955      1
    y_5        capacity   0.562271
    y_6        OBJ        -0.534054
    y_6        c_956      1
    y_6        capacity   0.133514
    y_7        OBJ        -3.07483
    y_7        c_957      1
    y_7        capacity   0.768707
    y_8        OBJ        -7.71274
    y_8        c_958      1
    y_8        capacity   1.92819
    y_9        OBJ        -6.11147
    y_9        c_959      1
    y_9        capacity   1.52787
    MARKER    'MARKER'                 'INTEND'
RHS
    RHS       capacity   30.6904
    RHS       c_950      1
    RHS       c_951      1
    RHS       c_952      1
    RHS       c_953      1
    RHS       c_954      1
    RHS       c_955      1
    RHS       c_956      1
    RHS       c_957      1
    RHS       c_958      1
    RHS       c_959      1
BOUNDS
 LI BND       x_0        0
 UI BND       x_0        1
 LI BND       x_1        0
 UI BND       x_1        1
 LI BND       x_2        0
 UI BND       x_2        1
 LI BND       x_3        0
 UI BND       x_3        1
 LI BND       x_4        0
 UI BND       x_4        1
 LI BND       x_5        0
 UI BND       x_5        1
 LI BND       x_6        0
 UI BND       x_6        1
 LI BND       x_7        0
 UI BND       x_7        1
 LI BND       x_8        0
 UI BND       x_8        1
 LI BND       x_9        0
 UI BND       x_9        1
 LI BND       y_0        0
 UI BND       y_0        1
 LI BND       y_1        0
 UI BND       y_1        1
 LI BND       y_2        0
 UI BND       y_2        1
 LI BND       y_3        0
 UI BND       y_3        1
 LI BND       y_4        0
 UI BND       y_4        1
 LI BND       y_5        0
 UI BND       y_5        1
 LI BND       y_6        0
 UI BND       y_6        1
 LI BND       y_7        0
 UI BND       y_7        1
 LI BND       y_8        0
 UI BND       y_8        1
 LI BND       y_9        0
 UI BND       y_9        1
ENDATA
